#Fake Types -> Real Types
#C => CH2
#N => CH3
#O => Amide Group
#P => CH Group

variable eps_CH2 equal 46.0*${kb}
variable eps_CH3 equal 98.0*${kb}
variable eps_AMD equal 183.07537114189853*${kb}
variable eps_CH equal 10.0*${kb}

variable sig_CH2 equal 3.95
variable sig_CH3 equal 3.75 
variable sig_AMD equal 4.548825932590976
variable sig_CH equal 4.68

variable rmax equal 0.5*(${sig_AMD}+${sig_CH})+0.5*abs(${sig_AMD}-${sig_CH})

variable eps_11 equal ${eps_CH2}
variable eps_22 equal ${eps_CH3}
variable eps_33 equal ${eps_AMD}
variable eps_44 equal ${eps_CH}

variable eps_12 equal sqrt(${eps_CH2}*${eps_CH3})
variable eps_13 equal sqrt(${eps_CH2}*${eps_AMD})
variable eps_14 equal sqrt(${eps_CH2}*${eps_CH})
variable eps_23 equal sqrt(${eps_CH3}*${eps_AMD})
variable eps_24 equal sqrt(${eps_CH3}*${eps_CH})
variable eps_34 equal sqrt(${eps_AMD}*${eps_CH})

variable sig_11 equal ${sig_CH2}
variable sig_22 equal ${sig_CH3}
variable sig_33 equal ${sig_AMD}
variable sig_44 equal ${sig_CH}

variable sig_12 equal 0.5*(${sig_CH2}+${sig_CH3})
variable sig_13 equal 0.5*(${sig_CH2}+${sig_AMD})
variable sig_14 equal 0.5*(${sig_CH2}+${sig_CH})
variable sig_23 equal 0.5*(${sig_CH3}+${sig_AMD})
variable sig_24 equal 0.5*(${sig_CH3}+${sig_CH})
variable sig_34 equal 0.5*(${sig_AMD}+${sig_CH})

variable rcut_dist equal 2.5 #Specifies the sigma cutoff. For example seting to 2.5 means rcut=2.5*sigma

variable cut_11 equal ${rcut_dist}*${sig_11}
variable cut_12 equal ${rcut_dist}*${sig_12}
variable cut_13 equal ${rcut_dist}*${sig_13}
variable cut_14 equal ${rcut_dist}*${sig_14}
variable cut_22 equal ${rcut_dist}*${sig_22}
variable cut_23 equal ${rcut_dist}*${sig_23}
variable cut_24 equal ${rcut_dist}*${sig_24}
variable cut_33 equal ${rcut_dist}*${sig_33}
variable cut_34 equal ${rcut_dist}*${sig_34}
variable cut_44 equal ${rcut_dist}*${sig_44}

# Pair Coeffs
#
# 1  C = CH2 UA Bead
# 2  N = CH3 UA Bead
# 3  O = Polar (CH3-N-C=0) Bead
# 4  P = CH UA Bead

pair_style hybrid/overlay lj/cut ${rmax} tersoff
pair_coeff  * * tersoff AMD.tersoff NULL NULL AMD NULL
pair_coeff  1 1  lj/cut ${eps_11} ${sig_11} ${cut_11}
pair_coeff  1 2  lj/cut ${eps_12} ${sig_12} ${cut_12} 
pair_coeff  1 3  lj/cut ${eps_13} ${sig_13} ${cut_13} 
pair_coeff  1 4  lj/cut ${eps_14} ${sig_14} ${cut_14} 
pair_coeff  2 2  lj/cut ${eps_22} ${sig_22} ${cut_22} 
pair_coeff  2 3  lj/cut ${eps_23} ${sig_23} ${cut_23} 
pair_coeff  2 4  lj/cut ${eps_24} ${sig_24} ${cut_24} 
#pair_coeff  3 3  lj/cut ${eps_33} ${sig_33} ${cut_33} 
pair_coeff  3 3  lj/cut 0.0 0.1 0.1
pair_coeff  3 4  lj/cut ${eps_34} ${sig_34} ${cut_34} 
pair_coeff  4 4  lj/cut ${eps_44} ${sig_44} ${cut_44} 
pair_modify pair lj/cut tail yes

#Bond Definition
#
# 1  C-C
# 2  C-N
# 3  C-O
# 4  C-P
# 5  O-P

bond_style harmonic
variable kbond equal 92500*${kb}
variable kcamd equal 311772.3964855736*${kb}
bond_coeff 1 ${kbond} 1.54
bond_coeff 2 ${kbond} 1.54
bond_coeff 3 ${kcamd} 2.102648975085077
bond_coeff 4 ${kbond} 1.54
bond_coeff 5 ${kcamd} 2.102648975085077

# Angle Definition
#
# 1  C-C-C
# 2  C-C-N
# 3  C-C-O
# 4  C-C-P
# 5  C-O-P
# 6  C-P-O
# 7  O-P-O

angle_style harmonic
variable kang equal 62500*${kb}
variable kangamd equal 407629.0044165364*${kb}
angle_coeff 1 ${kang} 114.0
angle_coeff 2 ${kang} 114.0
angle_coeff 3 ${kang} 114.0
angle_coeff 4 ${kang} 114
angle_coeff 5 ${kangamd} 167.3138240265058
angle_coeff 6 ${kang} 112.0
angle_coeff 7 ${kang} 112.0

#Dihedral definition
#
# 1  C-C-C-C 
# 2  C-C-C-CH3
# 3  C-C-C-AMD
# 4  C-C-C-CH
# 5  C-C-AMD-CH
# 6  C-C-CH-AMD
# 7  C-AMD-CH-C
# 8  C-AMD-CH-AMD

variable dihed11 equal 355.03*${kb}*2.0
variable dihed12 equal -68.19*${kb}*2.0
variable dihed13 equal 791.32*${kb}*2.0
variable dihed14 equal 0.0
variable dihed21 equal  428.73*${kb}*2.0
variable dihed22 equal -111.85*${kb}*2.0
variable dihed23 equal  441.27*${kb}*2.0
variable dihed24 equal  0.0

dihedral_style opls
dihedral_coeff 1 ${dihed11} ${dihed12} ${dihed13} 0.0 #Type 1
dihedral_coeff 2 ${dihed11} ${dihed12} ${dihed13} 0.0 #Type 1
dihedral_coeff 3 ${dihed11} ${dihed12} ${dihed13} 0.0 #Type 1
dihedral_coeff 4 ${dihed11} ${dihed12} ${dihed13} 0.0 #Type 1
dihedral_coeff 5 ${dihed11} ${dihed12} ${dihed13} 0.0 #Type 1
dihedral_coeff 6 ${dihed21} ${dihed22} ${dihed23} 0.0 #Type 2
dihedral_coeff 7 ${dihed21} ${dihed22} ${dihed23} 0.0 #Type 2
dihedral_coeff 8 ${dihed21} ${dihed22} ${dihed23} 0.0 #Type 2

